c This is QMaxSAT 2017 based on 14.07
c This is Glucose 3.0
c This is MiniSat 2.2.0
c WARNING: for repeatability, setting FPU to use double precision
c card = mrwto, comp = 0, pmodel = 0, narr = 2, mct = 14, verb = 0
cr firstCPXsol 0 0 0
c top = 80229
c |  Number of variables:    135813                                           |
c |  Number of clauses:      2549603                                          |
c |  Weight of hard clauses: 80229                                            |
c |  Number of soft clauses: 364                                              |
c |  Number of unit soft clauses: 364                                         |
c |  Maximum Cardinality (by unit): 160456       (160456      )               |
c last restart ## conflicts  :  54 19215 
o 3357 | cpuTime 0.868234 s
c Sum of weights = 80228
c A number of soft clauses remained = 182
c MRWTO encoding for Pseudo-Boolean Constraints
c sizeMax=3357
c No.0 Divisor=15	generated by pow1
c No.1 Divisor=15	generated by pow1
c No.2 Divisor=15	generated by pow1
c p0= 15	p1= 15	p2= 15	
c number of digits = 4
c linkingVar[0].size = 15, linkingVar[1].size = 15, linkingVar[2].size = 15, linkingVar[3].size = 1, 
c Pseudo-Boolean Constraints: 5049 variables and 59875 clauses
c Sum of weights = 80228
c A number of soft clauses remained = 182
c MRWTO encoding for Pseudo-Boolean Constraints
c sizeMax=3357
c No.0 Divisor=15	generated by pow1
c No.1 Divisor=15	generated by pow1
c No.2 Divisor=15	generated by pow1
c p0= 15	p1= 15	p2= 15	
c number of digits = 4
c linkingVar[0].size = 15, linkingVar[1].size = 15, linkingVar[2].size = 15, linkingVar[3].size = 1, 
c Pseudo-Boolean Constraints: 5049 variables and 59875 clauses
c last restart ## conflicts  :  164 18600 
o 2974 | cpuTime 1.58835 s
c last restart ## conflicts  :  208 18953 
o 2803 | cpuTime 3.47702 s
c last restart ## conflicts  :  121 18684 
o 2743 | cpuTime 6.8855 s
c last restart ## conflicts  :  1015 18622 
o 2695 | cpuTime 9.24379 s
c last restart ## conflicts  :  248 18617 
o 2257 | cpuTime 10.0108 s
c last restart ## conflicts  :  400 18607 
o 2207 | cpuTime 10.1722 s
c last restart ## conflicts  :  74 19306 
o 2164 | cpuTime 17.6314 s
c last restart ## conflicts  :  340 19680 
o 2153 | cpuTime 19.6685 s
c last restart ## conflicts  :  737 20053 
o 2128 | cpuTime 25.7474 s
c last restart ## conflicts  :  46 19480 
o 2089 | cpuTime 25.7816 s
c last restart ## conflicts  :  82 19504 
o 2069 | cpuTime 25.8126 s
c last restart ## conflicts  :  115 20335 
o 2061 | cpuTime 44.6789 s
c last restart ## conflicts  :  760 20015 
o 2060 | cpuTime 55.5898 s
c last restart ## conflicts  :  498 20292 
o 2052 | cpuTime 90.134 s
c last restart ## conflicts  :  225 20398 
o 2042 | cpuTime 102.347 s
c last restart ## conflicts  :  139 20232 
o 2038 | cpuTime 139.358 s
s OPTIMUM FOUND
cr positiVarArr: [ | 8@1(1->8) | 15@1(2->1) | 62@1(5->6) | 82@1(6->12) | 89@1(7->5) | 111@1(8->13) | 168@1(12->14) | 175@1(13->7) | 184@1(14->2) | 199@2(1->3) | 228@2(3->4) | 249@2(4->11) | 318@2(9->10) | 323@2(10->1) | 345@2(11->9) | ]
cr the 1-th chain: [ 1->8->13->7->5->6->12->14->2->1 ] (#non-depot=8) {#cumul.=9}
cr the 2-th chain: [ 1->3->4->11->9->10->1 ] (#non-depot=5) {#cumul.=14}
c Latest Answer = 0 by 17 loops
c restarts              : 10378
c conflicts             : 2061695        (5838 /sec)
c decisions             : 4088881        (0.00 % random) (11578 /sec)
c propagations          : 2243905918     (6353644 /sec)
c conflict literals     : 142704263      (37.39 % deleted)
c Memory used           : 352.00 MB
c CPU time              : 353.168 s
